30	100	100	100
62	28	100
15	72	100
59	41	100
38	40	100
39	74	100
55	28	100
66	45	100
45	36	100
24	24	100
87	58	100
9	23	100
12	65	100
52	12	100
93	32	100
77	48	100
99	5	100
52	49	100
59	49	100
33	44	100
8	29	100
26	33	100
28	55	100
69	51	100
51	75	100
85	10	100
5	44	100
46	13	100
6	46	100
14	88	100
52	72	100
